(declare-fun bvlambda_6_ () (_ BitVec 5))
(declare-fun bvlambda_8_ () (_ BitVec 2))
(declare-fun bvlambda_9_ () (_ BitVec 1))
(declare-fun a65 () (Array (_ BitVec 1) (_ BitVec 14)))
(assert
(let (($e1 (_ bv0 1)))
(let (($e84 (concat bvlambda_8_ bvlambda_6_)))
(let (($e85 (concat $e84 false      )))
(let (($e86 (concat $e85 bvlambda_8_)))
(let (($e87 (concat $e86 $e1        )))
(let (($e88 (concat $e87 bvlambda_8_ )))
(let (($e89 (concat $e88 $e1         )))
(let (($e101 (concat $e85  $e1         )))
(let (($e109 (concat        bvlambda_6_ $e101)))
(let (($e112 (store a65 (bvnot $e1) $e109)))
(let (($e113 (store $e112 bvlambda_9_ $e89)))
(let (($e114 (select $e113 (bvnot $e1))))
                  (bvult $e114 $e109)
                                                                                                                                                                                                                                                                                                                                                                                                                                                                                                                                                                                                                                                                                                                                                                                                                                                                                                                                                                                                                                                                                                                                                                                                                                                                                                                                                                                                                                                                              )))  )       )           ))))))                                         ))
